\ LP format - for model browsing. Use MPS format to capture full model detail.
Minimize
  5741 C0(8) + 5614 C1(8) + 6146 C2(9) + 5790 C3(9) + 6035 C4(9)
   + 5714 C5(9) + 5692 C6(8) + 5847 C7(8) + 5754 C8(9) + 6184 C9(9)
   + 5708 C10(8) + 5641 C11(8) + 5679 C12(9) + 5722 C13(8) + 5791 C14(9)
   + 6090 C15(8) + 6060 C16(9) + 5827 C17(8) + 5647 C18(8) + 5753 C19(9)
   + 5732 C20(8) + 5717 C21(8) + 6160 C22(9) + 5678 C23(9) + 5717 C24(8)
   + 5741 C25(8) + 6152 C26(9) + 5678 C27(9) + 5630 C28(9) + 5585 C29(8)
   + 5972 C30(8) + 6103 C31(9) + 5759 C32(9) + 6036 C33(9) + 5851 C34(8)
   + 5641 C35(8) + 5754 C36(9) + 6160 C37(9) + 5641 C38(8) + 5732 C39(8)
   + 1757 C40(7) + 2095 C41(7) + 2482 C42(7) + 4724 C43(8) + 4868 C44(8)
   + 5158 C45(8) + 3103 C46(9) + 3231 C47(9) + 3365 C48(9) + 5554 C49(6)
   + 5083 C50(6) + 5367 C51(6) + 4933 C52(8) + 5368 C53(8) + 4528 C54(7)
   + 3928 C55(7) + 4723 C56(8) + 4113 C57(7) + 6943 C58(7) + 7425 C59(8)
   + 7909 C60(8) + 4855 C61(8) + 4886 C62(8) + 4478 C63(8) + 6775 C64(6)
   + 7591 C65(7) + 7539 C66(7) + 4896 C67(7) + 4755 C68(7) + 5157 C69(8)
   + 6040 C70(8) + 6384 C71(8) + 6542 C72(8) + 6054 C73(9) + 5917 C74(9)
   + 5644 C75(10) + 5229 C76(7) + 4504 C77(7) + 3711 C78(7) + 3103 C79(6)
   + 3556 C80(7) + 3147 C81(6) + 3875 C82(7) + 3567 C83(7) + 4533 C84(8)
   + 6534 C85(7) + 6626 C86(7) + 3082 C87(7) + 4356 C88(6) + 3943 C89(6)
   + 4398 C90(7) + 4101 C91(7) + 4276 C92(6) + 4954 C93(7) + 4408 C94(7)
   + 3358 C95(7) + 5100 C96(7) + 4435 C97(7) + 4473 C98(7) + 4014 C99(6)
   + 4338 C100(8) + 3712 C101(7) + 3874 C102(6) + 4375 C103(7)
   + 4352 C104(6) + 5083 C105(7) + 4030 C106(8) + 4541 C107(7)
   + 4813 C108(8) + 4469 C109(7) + 4048 C110(6) + 4272 C111(6)
   + 4567 C112(7) + 4572 C113(7) + 4996 C114(7) + 3826 C115(7)
   + 4468 C116(8) + 3895 C117(6) + 6445 C118(8) + 4686 C119(7)
   + 4046 C120(6) + 4810 C121(6) + 4409 C122(6) + 4689 C123(6)
   + 4232 C124(7) + 3909 C125(7) + 4138 C126(6) + 4067 C127(8)
   + 4352 C128(8) + 4402 C129(8) + 4491 C130(7) + 4442 C131(7)
   + 4809 C132(7) + 4267 C133(6) + 4090 C134(7) + 4409 C135(6)
   + 4694 C136(7) + 4052 C137(6) + 4557 C138(6) + 4038 C139(7)
   + 4713 C140(7) + 4532 C141(7)
Subject To
 c0: C0(8) + C1(8) + C2(9) + C3(9) + C4(9) + C5(9) + C6(8) + C7(8) + C8(9)
   + C9(9) + C10(8) + C11(8) + C12(9) + C13(8) + C14(9) + C15(8) + C16(9)
   + C17(8) + C18(8) + C19(9) + C20(8) + C21(8) + C22(9) + C23(9) + C24(8)
   + C25(8) + C26(9) + C27(9) + C28(9) + C29(8) + C30(8) + C31(9) + C32(9)
   + C33(9) + C34(8) + C35(8) + C36(9) + C37(9) + C38(8) + C39(8) + C40(7)
   + C41(7) + C42(7) + C43(8) + C44(8) + C45(8) + C46(9) + C47(9) + C48(9)
   + C49(6) + C50(6) + C51(6) + C52(8) + C53(8) + C54(7) + C55(7) + C56(8)
   + C57(7) + C58(7) + C59(8) + C60(8) + C61(8) + C62(8) + C63(8) + C64(6)
   + C65(7) + C66(7) + C67(7) + C68(7) + C69(8) + C70(8) + C71(8) + C72(8)
   + C73(9) + C74(9) + C75(10) + C76(7) + C77(7) + C78(7) + C79(6) + C80(7)
   + C81(6) + C82(7) + C83(7) + C84(8) + C85(7) + C86(7) + C87(7) + C88(6)
   + C89(6) + C90(7) + C91(7) + C92(6) + C93(7) + C94(7) + C95(7) + C96(7)
   + C97(7) + C98(7) + C99(6) + C100(8) + C101(7) + C102(6) + C103(7)
   + C104(6) + C105(7) + C106(8) + C107(7) + C108(8) + C109(7) + C110(6)
   + C111(6) + C112(7) + C113(7) + C114(7) + C115(7) + C116(8) + C117(6)
   + C118(8) + C119(7) + C120(6) + C121(6) + C122(6) + C123(6) + C124(7)
   + C125(7) + C126(6) + C127(8) + C128(8) + C129(8) + C130(7) + C131(7)
   + C132(7) + C133(6) + C134(7) + C135(6) + C136(7) + C137(6) + C138(6)
   + C139(7) + C140(7) + C141(7) = 4
 c1: C3(9) + C5(9) + C8(9) + C12(9) + C19(9) + C23(9) + C27(9) + C28(9)
   + C32(9) + C36(9) + C41(7) = 1
 c2: C3(9) + C7(8) + C11(8) + C13(8) + C18(8) + C21(8) + C24(8) + C31(9)
   + C35(8) + C38(8) + C40(7) + C41(7) + C42(7) + C44(8) + C45(8) = 1
 c3: C3(9) + C4(9) + C9(9) + C12(9) + C19(9) + C23(9) + C27(9) + C30(8)
   + C32(9) + C36(9) + C64(6) + C65(7) + C66(7) + C67(7) + C81(6) + C87(7)
   + C102(6) + C117(6) = 1
 c4: C0(8) + C7(8) + C10(8) + C14(9) + C16(9) + C20(8) + C25(8) + C28(9)
   + C33(9) + C39(8) + C40(7) + C46(9) + C52(8) + C53(8) + C54(7) + C55(7)
   + C56(8) + C60(8) + C61(8) + C63(8) + C66(7) + C71(8) + C73(9) + C74(9)
   + C75(10) + C83(7) + C84(8) + C90(7) + C91(7) + C93(7) + C100(8)
   + C103(7) + C104(6) + C105(7) + C106(8) + C107(7) + C108(8) + C109(7)
   + C110(6) + C112(7) + C113(7) + C114(7) + C116(8) + C118(8) + C119(7)
   + C125(7) + C129(8) + C131(7) + C132(7) + C134(7) + C136(7) = 1
 c5: C3(9) + C6(8) + C11(8) + C12(9) + C18(8) + C23(9) + C27(9) + C31(9)
   + C35(8) + C38(8) + C61(8) + C62(8) + C63(8) + C70(8) + C71(8) + C72(8)
   + C73(9) + C74(9) + C75(10) + C76(7) + C77(7) + C78(7) + C82(7) + C84(8)
   + C88(6) + C89(6) + C90(7) + C91(7) + C92(6) + C93(7) + C97(7) + C98(7)
   + C99(6) + C100(8) + C101(7) + C113(7) + C114(7) + C115(7) + C116(8)
   + C123(6) + C124(7) + C127(8) + C128(8) + C129(8) + C133(6) + C134(7)
   + C139(7) + C140(7) + C141(7) = 1
 c6: C3(9) + C6(8) + C11(8) + C12(9) + C18(8) + C23(9) + C27(9) + C31(9)
   + C35(8) + C38(8) + C58(7) + C59(8) + C60(8) + C67(7) + C68(7) + C69(8)
   + C79(6) + C80(7) + C81(6) + C87(7) + C91(7) + C92(6) + C93(7) + C106(8)
   + C107(7) + C108(8) + C109(7) + C110(6) + C111(6) + C121(6) + C122(6)
   + C123(6) + C124(7) + C125(7) + C126(6) + C135(6) + C136(7) + C137(6)
   + C138(6) + C140(7) + C141(7) = 1
 c7: C2(9) + C7(8) + C10(8) + C14(9) + C17(8) + C22(9) + C26(9) + C31(9)
   + C33(9) + C37(9) + C40(7) + C41(7) + C42(7) + C43(8) + C44(8) + C50(6)
   + C87(7) = 1
 c8: C1(8) + C4(9) + C9(9) + C13(8) + C19(9) + C21(8) + C24(8) + C29(8)
   + C32(9) + C36(9) + C58(7) + C59(8) + C60(8) + C75(10) + C76(7) + C77(7)
   + C78(7) + C82(7) + C83(7) + C84(8) + C97(7) + C98(7) + C99(6) + C112(7)
   + C113(7) + C114(7) + C118(8) + C119(7) + C120(6) + C130(7) + C131(7)
   + C136(7) + C137(6) + C138(6) = 1
 c9: C0(8) + C5(9) + C10(8) + C15(8) + C17(8) + C22(9) + C25(8) + C29(8)
   + C33(9) + C37(9) + C40(7) + C41(7) + C42(7) + C43(8) + C45(8) + C81(6)
   + C87(7) = 1
 c10: C2(9) + C5(9) + C8(9) + C15(8) + C17(8) + C22(9) + C26(9) + C30(8)
   + C34(8) + C37(9) + C52(8) + C53(8) + C54(7) + C61(8) + C62(8) + C63(8)
   + C76(7) + C77(7) + C78(7) + C88(6) + C89(6) + C103(7) + C104(6)
   + C105(7) + C108(8) + C118(8) + C119(7) + C120(6) + C121(6) + C122(6)
   + C128(8) + C130(7) + C132(7) + C133(6) + C134(7) + C135(6) = 1
 c11: C0(8) + C7(8) + C10(8) + C15(8) + C17(8) + C20(8) + C25(8) + C31(9)
   + C34(8) + C39(8) + C49(6) + C50(6) + C51(6) + C64(6) + C65(7) + C66(7)
   + C82(7) + C83(7) + C84(8) + C88(6) + C89(6) + C90(7) + C91(7) + C92(6)
   + C93(7) + C97(7) + C98(7) + C99(6) + C100(8) + C101(7) + C102(6)
   + C103(7) + C104(6) + C105(7) + C109(7) + C110(6) + C111(6) + C113(7)
   + C114(7) + C119(7) + C120(6) + C121(6) + C122(6) + C123(6) + C124(7)
   + C125(7) + C126(6) + C131(7) + C132(7) + C133(6) + C134(7) + C135(6)
   + C136(7) + C137(6) + C138(6) + C140(7) + C141(7) = 1
 c12: C2(9) + C5(9) + C8(9) + C14(9) + C16(9) + C22(9) + C26(9) + C28(9)
   + C33(9) + C37(9) + C52(8) + C53(8) + C56(8) + C57(7) + C62(8) + C67(7)
   + C68(7) + C69(8) + C71(8) + C72(8) + C73(9) + C74(9) + C75(10) + C82(7)
   + C83(7) + C84(8) + C100(8) + C101(7) + C102(6) + C106(8) + C108(8)
   + C124(7) + C125(7) + C126(6) + C128(8) + C130(7) = 1
 c13: C2(9) + C4(9) + C9(9) + C15(8) + C16(9) + C20(8) + C26(9) + C30(8)
   + C34(8) + C39(8) + C40(7) + C41(7) + C42(7) + C63(8) + C78(7) + C82(7)
   + C83(7) + C84(8) + C87(7) + C91(7) + C119(7) + C120(6) + C122(6)
   + C124(7) + C125(7) + C134(7) + C135(6) + C136(7) + C137(6) + C141(7)
   = 1
 c14: C1(8) + C6(8) + C11(8) + C13(8) + C18(8) + C21(8) + C24(8) + C29(8)
   + C35(8) + C38(8) + C55(7) + C56(8) + C57(7) + C64(6) + C65(7) + C66(7)
   + C76(7) + C86(7) + C94(7) + C96(7) + C107(7) + C112(7) + C115(7)
   + C116(8) + C117(6) + C139(7) = 1
 c15: C3(9) + C6(8) + C8(9) + C13(8) + C18(8) + C22(9) + C26(9) + C29(8)
   + C32(9) + C37(9) + C46(9) + C47(9) + C48(9) + C59(8) + C69(8) + C70(8)
   + C95(7) + C127(8) = 1
 c16: C0(8) + C7(8) + C10(8) + C14(9) + C16(9) + C20(8) + C25(8) + C28(9)
   + C33(9) + C39(8) + C43(8) + C44(8) + C45(8) + C52(8) + C53(8) + C54(7)
   + C58(7) + C59(8) + C60(8) + C67(7) + C68(7) + C69(8) + C70(8) + C71(8)
   + C72(8) + C94(7) + C95(7) + C96(7) + C127(8) + C129(8) = 1
 c17: C3(9) + C4(9) + C9(9) + C12(9) + C19(9) + C23(9) + C27(9) + C31(9)
   + C32(9) + C36(9) + C47(9) + C49(6) + C52(8) + C53(8) + C54(7) + C55(7)
   + C56(8) + C57(7) + C70(8) + C72(8) + C73(9) + C74(9) + C75(10) + C79(6)
   + C80(7) + C86(7) + C94(7) + C95(7) + C96(7) + C97(7) + C100(8)
   + C101(7) + C106(8) + C107(7) + C108(8) + C109(7) + C111(6) + C112(7)
   + C115(7) + C116(8) + C118(8) + C127(8) + C128(8) + C129(8) + C130(7)
   + C131(7) + C132(7) + C139(7) = 1
 c18: C1(8) + C6(8) + C11(8) + C13(8) + C18(8) + C21(8) + C24(8) + C29(8)
   + C35(8) + C38(8) + C52(8) + C53(8) + C54(7) + C64(6) + C65(7) + C66(7)
   + C73(9) + C74(9) + C75(10) + C79(6) + C80(7) + C81(6) + C88(6) + C89(6)
   + C97(7) + C98(7) + C99(6) + C100(8) + C101(7) + C102(6) + C108(8)
   + C109(7) + C110(6) + C111(6) + C138(6) = 1
 c19: C2(9) + C7(8) + C10(8) + C15(8) + C17(8) + C22(9) + C26(9) + C31(9)
   + C33(9) + C37(9) + C46(9) + C47(9) + C48(9) + C55(7) + C56(8) + C57(7)
   + C77(7) + C79(6) + C90(7) + C92(6) + C93(7) + C95(7) + C96(7) + C104(6)
   + C105(7) + C106(8) + C107(7) + C112(7) + C113(7) + C114(7) + C115(7)
   + C116(8) + C117(6) + C123(6) + C126(6) + C127(8) + C128(8) + C129(8)
   + C130(7) + C131(7) + C132(7) + C133(6) + C139(7) = 1
 c20: C0(8) + C5(9) + C8(9) + C14(9) + C16(9) + C20(8) + C25(8) + C28(9)
   + C34(8) + C39(8) + C43(8) + C44(8) + C45(8) + C48(9) + C55(7) + C56(8)
   + C57(7) + C67(7) + C75(10) + C80(7) + C90(7) + C94(7) + C98(7)
   + C103(7) + C106(8) + C115(7) + C116(8) + C117(6) + C127(8) + C128(8)
   + C129(8) + C140(7) = 1
 c21: C1(8) + C4(9) + C9(9) + C13(8) + C19(9) + C21(8) + C24(8) + C29(8)
   + C32(9) + C36(9) + C61(8) + C62(8) + C63(8) + C68(7) + C69(8) + C85(7)
   = 1
 c22: C1(8) + C6(8) + C8(9) + C12(9) + C19(9) + C23(9) + C27(9) + C28(9)
   + C32(9) + C36(9) + C40(7) + C41(7) + C42(7) + C43(8) + C44(8) + C45(8)
   + C46(9) + C47(9) + C48(9) + C51(6) + C52(8) + C61(8) + C62(8) + C63(8)
   + C65(7) + C67(7) + C68(7) + C69(8) + C75(10) + C76(7) + C77(7) + C78(7)
   + C79(6) + C80(7) + C81(6) + C82(7) + C83(7) + C84(8) + C87(7) + C89(6)
   + C91(7) + C92(6) + C93(7) + C94(7) + C95(7) + C96(7) + C97(7) + C98(7)
   + C100(8) + C101(7) + C102(6) + C103(7) + C105(7) + C106(8) + C107(7)
   + C108(8) + C109(7) + C113(7) + C115(7) + C116(8) + C117(6) + C119(7)
   + C120(6) + C121(6) + C122(6) + C124(7) + C125(7) + C126(6) + C127(8)
   + C128(8) + C129(8) + C131(7) + C132(7) + C133(6) + C134(7) + C135(6)
   + C136(7) + C137(6) + C138(6) + C139(7) + C140(7) + C141(7) = 1
 c23: C0(8) + C7(8) + C10(8) + C14(9) + C16(9) + C20(8) + C25(8) + C28(9)
   + C33(9) + C39(8) + C46(9) + C47(9) + C48(9) + C58(7) + C59(8) + C60(8)
   + C61(8) + C62(8) + C63(8) + C73(9) + C74(9) + C75(10) + C85(7) + C86(7)
   + C118(8) = 1
 c24: C2(9) + C5(9) + C8(9) + C15(8) + C17(8) + C22(9) + C26(9) + C30(8)
   + C34(8) + C37(9) + C58(7) + C59(8) + C60(8) + C70(8) + C71(8) + C72(8)
   + C73(9) + C74(9) + C85(7) + C86(7) = 1
 c25: C1(8) + C4(9) + C9(9) + C12(9) + C17(8) + C21(8) + C24(8) + C31(9)
   + C34(8) + C36(9) + C46(9) + C47(9) + C48(9) = 1
 c26: C2(9) + C5(9) + C11(8) + C15(8) + C19(9) + C23(9) + C27(9) + C30(8)
   + C35(8) + C38(8) + C46(9) + C47(9) + C48(9) = 1
 c27: C0(8) + C4(9) + C9(9) + C14(9) + C16(9) + C20(8) + C25(8) + C30(8)
   + C34(8) + C39(8) + C42(7) + C46(9) + C47(9) + C48(9) + C53(8) + C54(7)
   + C55(7) + C56(8) + C57(7) + C58(7) + C59(8) + C60(8) + C61(8) + C62(8)
   + C68(7) + C69(8) + C70(8) + C71(8) + C72(8) + C76(7) + C77(7) + C78(7)
   + C80(7) + C88(6) + C90(7) + C94(7) + C95(7) + C96(7) + C99(6) + C103(7)
   + C104(6) + C105(7) + C110(6) + C111(6) + C112(7) + C114(7) + C121(6)
   + C123(6) + C130(7) + C139(7) + C140(7) + C141(7) = 1
 c28: C3(9) + C6(8) + C9(9) + C12(9) + C19(9) + C23(9) + C27(9) + C30(8)
   + C32(9) + C36(9) + C43(8) + C44(8) + C45(8) + C49(6) + C50(6) + C51(6)
   + C73(9) + C85(7) + C86(7) + C118(8) = 1
 c29: C1(8) + C4(9) + C11(8) + C13(8) + C18(8) + C21(8) + C24(8) + C29(8)
   + C35(8) + C38(8) + C43(8) + C44(8) + C45(8) + C49(6) + C50(6) + C51(6)
   + C74(9) + C85(7) + C118(8) = 1
 c30: C2(9) + C5(9) + C8(9) + C14(9) + C16(9) + C22(9) + C26(9) + C28(9)
   + C33(9) + C37(9) + C49(6) + C50(6) + C51(6) + C64(6) + C65(7) + C66(7)
   + C70(8) + C71(8) + C72(8) + C85(7) + C86(7) = 1
Bounds
 C0(8) <= 1
 C1(8) <= 1
 C2(9) <= 1
 C3(9) <= 1
 C4(9) <= 1
 C5(9) <= 1
 C6(8) <= 1
 C7(8) <= 1
 C8(9) <= 1
 C9(9) <= 1
 C10(8) <= 1
 C11(8) <= 1
 C12(9) <= 1
 C13(8) <= 1
 C14(9) <= 1
 C15(8) <= 1
 C16(9) <= 1
 C17(8) <= 1
 C18(8) <= 1
 C19(9) <= 1
 C20(8) <= 1
 C21(8) <= 1
 C22(9) <= 1
 C23(9) <= 1
 C24(8) <= 1
 C25(8) <= 1
 C26(9) <= 1
 C27(9) <= 1
 C28(9) <= 1
 C29(8) <= 1
 C30(8) <= 1
 C31(9) <= 1
 C32(9) <= 1
 C33(9) <= 1
 C34(8) <= 1
 C35(8) <= 1
 C36(9) <= 1
 C37(9) <= 1
 C38(8) <= 1
 C39(8) <= 1
 C40(7) <= 1
 C41(7) <= 1
 C42(7) <= 1
 C43(8) <= 1
 C44(8) <= 1
 C45(8) <= 1
 C46(9) <= 1
 C47(9) <= 1
 C48(9) <= 1
 C49(6) <= 1
 C50(6) <= 1
 C51(6) <= 1
 C52(8) <= 1
 C53(8) <= 1
 C54(7) <= 1
 C55(7) <= 1
 C56(8) <= 1
 C57(7) <= 1
 C58(7) <= 1
 C59(8) <= 1
 C60(8) <= 1
 C61(8) <= 1
 C62(8) <= 1
 C63(8) <= 1
 C64(6) <= 1
 C65(7) <= 1
 C66(7) <= 1
 C67(7) <= 1
 C68(7) <= 1
 C69(8) <= 1
 C70(8) <= 1
 C71(8) <= 1
 C72(8) <= 1
 C73(9) <= 1
 C74(9) <= 1
 C75(10) <= 1
 C76(7) <= 1
 C77(7) <= 1
 C78(7) <= 1
 C79(6) <= 1
 C80(7) <= 1
 C81(6) <= 1
 C82(7) <= 1
 C83(7) <= 1
 C84(8) <= 1
 C85(7) <= 1
 C86(7) <= 1
 C87(7) <= 1
 C88(6) <= 1
 C89(6) <= 1
 C90(7) <= 1
 C91(7) <= 1
 C92(6) <= 1
 C93(7) <= 1
 C94(7) <= 1
 C95(7) <= 1
 C96(7) <= 1
 C97(7) <= 1
 C98(7) <= 1
 C99(6) <= 1
 C100(8) <= 1
 C101(7) <= 1
 C102(6) <= 1
 C103(7) <= 1
 C104(6) <= 1
 C105(7) <= 1
 C106(8) <= 1
 C107(7) <= 1
 C108(8) <= 1
 C109(7) <= 1
 C110(6) <= 1
 C111(6) <= 1
 C112(7) <= 1
 C113(7) <= 1
 C114(7) <= 1
 C115(7) <= 1
 C116(8) <= 1
 C117(6) <= 1
 C118(8) <= 1
 C119(7) <= 1
 C120(6) <= 1
 C121(6) <= 1
 C122(6) <= 1
 C123(6) <= 1
 C124(7) <= 1
 C125(7) <= 1
 C126(6) <= 1
 C127(8) <= 1
 C128(8) <= 1
 C129(8) <= 1
 C130(7) <= 1
 C131(7) <= 1
 C132(7) <= 1
 C133(6) <= 1
 C134(7) <= 1
 C135(6) <= 1
 C136(7) <= 1
 C137(6) <= 1
 C138(6) <= 1
 C139(7) <= 1
 C140(7) <= 1
 C141(7) <= 1
End
